NAME: location10
TYPE: TSP
COMMENT: 10 simutaion
DIMENSION: 10
EDGE_WEIGHT_TYPE : EUC_2D
NODE_COORD_SECTION
1 0 0
2 20 10 
3 15 25 
4 10 50 
5 34 65 
6 21 85 
7 25 110
8 45 100
9 61 110
10 75 97 
11 100 100
12 110 110
13 89 65
14 76 72
15 57 69
16 67 34
17 80 20
18 105 15
19 110 45
20 45 20
EOF
